
Gurobi 11.0.3 (linux64) logging started Wed Apr 15 23:25:01 2026

Set parameter LogFile to value "tree/results/blsc/blsc_depth-2_run-1/Full MIP/LogFile_FullModel.txt"
Gurobi Optimizer version 11.0.3 build v11.0.3rc0 (linux64 - "CentOS Linux 7 (Core)")

CPU model: Intel(R) Xeon(R) Platinum 8260 CPU @ 2.40GHz, instruction set [SSE2|AVX|AVX2|AVX512]
Thread count: 96 physical cores, 192 logical processors, using up to 32 threads

Optimize a model with 13166 rows, 11284 columns and 75887 nonzeros
Model fingerprint: 0xafc540f4
Model has 1872 general constraints
Variable types: 5656 continuous, 5628 integer (5628 binary)
Coefficient statistics:
  Matrix range     [2e-03, 1e+04]
  Objective range  [2e-03, 1e+04]
  Bounds range     [2e-01, 5e+02]
  RHS range        [1e-04, 5e+02]

User MIP start produced solution with objective -2499.28 (0.04s)
Loaded user MIP start with objective -2499.28

Presolve added 5324 rows and 5472 columns
Presolve time: 0.12s
Presolved: 18490 rows, 16756 columns, 90278 nonzeros
Presolved model has 2016 SOS constraint(s)
Variable types: 5656 continuous, 11100 integer (11100 binary)

Root relaxation: objective 1.000000e+00, 5958 iterations, 2.71 seconds (3.20 work units)

    Nodes    |    Current Node    |     Objective Bounds      |     Work
 Expl Unexpl |  Obj  Depth IntInf | Incumbent    BestBd   Gap | It/Node Time

     0     0    1.00000    0    5 -2499.2842    1.00000   100%     -    3s
     0     2    1.00000    0    5 -2499.2842    1.00000   100%     -   11s
H    1     4                    -2499.284187    1.00000   100%   0.0   13s
     7    16    1.00000    3  187 -2499.2842    1.00000   100%  1493   15s
    15    32    1.00000    4  187 -2499.2842    1.00000   100%  1405   21s
    31    64    1.00000    5  421 -2499.2842    1.00000   100%   938   37s
H   49    64                       0.6923077    1.00000  44.4%   635   38s
    63    96    1.00000    6  653    0.69231    1.00000  44.4%   523   54s
    95   128    1.00000    7  652    0.69231    1.00000  44.4%   375  184s
   159   192    1.00000    8 1857    0.69231    1.00000  44.4%   304  258s
   191   243    1.00000    8  651    0.69231    1.00000  44.4%   459  265s
   242   275    1.00000    9 2013    0.69231    1.00000  44.4%   835  394s
   274   557    1.00000   10  766    0.69231    1.00000  44.4%  1007  440s
   556   589    1.00000   12  754    0.69231    1.00000  44.4%  1038  603s
   588  1958    1.00000   12  754    0.69231    1.00000  44.4%   990  668s
  1957  5576    1.00000   44  696    0.69231    1.00000  44.4%   587  863s
  5581 11080    1.00000  171  569    0.69231    1.00000  44.4%   388  992s
 11161 13746    1.00000  346  470    0.69231    1.00000  44.4%   325 1115s
 14028 16765    0.97110  494  456    0.69231    1.00000  44.4%   318 1229s
 17539 16766    1.00000   69    5    0.69231    1.00000  44.4%   307 1233s
 17541 16767    1.00000  409  236    0.69231    1.00000  44.4%   307 1255s
 17542 16768    1.00000    6  236    0.69231    1.00000  44.4%   307 1281s
 17543 16772    1.00000   12  459    0.69231    1.00000  44.4%   308 1290s
 17549 16782    1.00000   14 1140    0.69231    1.00000  44.4%   310 1295s
 17573 16822    1.00000   16  622    0.69231    1.00000  44.4%   313 1356s
 17701 16907    1.00000   18  620    0.69231    1.00000  44.4%   311 1432s
 17791 16992    1.00000   20  618    0.69231    1.00000  44.4%   310 1435s
 17848 17118    1.00000   21  617    0.69231    1.00000  44.4%   309 1479s
 17993 17139    1.00000   23  615    0.69231    1.00000  44.4%   308 1670s
 18062 18060    1.00000   24  614    0.69231    1.00000  44.4%   308 1703s
 19006 19191    1.00000   24  614    0.69231    1.00000  44.4%   294 1769s
 20452 24389    1.00000   25  633    0.69231    1.00000  44.4%   275 1869s
 26247 26794    1.00000   49  609    0.69231    1.00000  44.4%   218 1909s
 31290 25197    1.00000  120  731    0.69231    1.00000  44.4%   186 1991s
 31389 28705    1.00000  121  730    0.69231    1.00000  44.4%   185 2029s
 35505 28892    1.00000  191  660    0.69231    1.00000  44.4%   166 2168s
 37853 32793    1.00000  194  657    0.69231    1.00000  44.4%   157 2287s
 45155 30412    1.00000  368  483    0.69231    1.00000  44.4%   136 2376s
 45234 31908    1.00000  389  470    0.69231    1.00000  44.4%   136 2473s
 48370 32552 infeasible  402         0.69231    1.00000  44.4%   131 2621s
 51641 33380 infeasible  471         0.69231    1.00000  44.4%   125 2684s
 56151 31935 infeasible  552         0.69231    1.00000  44.4%   118 2741s
 56232 34822 infeasible  553         0.69231    1.00000  44.4%   118 2878s
 61348 35834 infeasible  567         0.69231    1.00000  44.4%   110 2967s
 66213 34345 infeasible  645         0.69231    1.00000  44.4%   104 3127s
 66422 36278    0.86462  656  406    0.69231    1.00000  44.4%   103 3236s
 70521 39117 infeasible  719         0.69231    1.00000  44.4%  99.3 3312s
 75809 39143    1.00000   49  665    0.69231    1.00000  44.4%  94.0 3459s
 75846 39713    1.00000   47  667    0.69231    1.00000  44.4%  93.9 3552s
 76722 44028    1.00000   56  658    0.69231    1.00000  44.4%  93.1 3601s

Cutting planes:
  Lazy constraints: 4

Explored 82759 nodes (7255405 simplex iterations) in 3601.18 seconds (3454.08 work units)
Thread count was 32 (of 192 available processors)

Solution count 3: 0.692308 -2499.28 -2499.28 

Time limit reached
Best objective 6.923076923078e-01, best bound 1.000000000000e+00, gap 44.4444%

User-callback calls 2211283, time in user-callback 10.38 sec
